c sat-poset-nomax-a 14
c file created by SAT-TO-DIMACS Wed Jul  8 08:17:40 2015
c 13.14 -> 196
c 12.14 -> 195
c 12.13 -> 194
c 11.14 -> 193
c 11.13 -> 192
c 11.12 -> 191
c 10.14 -> 190
c 10.13 -> 189
c 10.12 -> 188
c 10.11 -> 187
c 9.14 -> 186
c 9.13 -> 185
c 9.12 -> 184
c 9.11 -> 183
c 9.10 -> 182
c 8.14 -> 181
c 8.13 -> 180
c 8.12 -> 179
c 8.11 -> 178
c 8.10 -> 177
c 8.9 -> 176
c 7.14 -> 175
c 7.13 -> 174
c 7.12 -> 173
c 7.11 -> 172
c 7.10 -> 171
c 7.9 -> 170
c 7.8 -> 169
c 6.14 -> 168
c 6.13 -> 167
c 6.12 -> 166
c 6.11 -> 165
c 6.10 -> 164
c 6.9 -> 163
c 6.8 -> 162
c 6.7 -> 161
c 5.14 -> 160
c 5.13 -> 159
c 5.12 -> 158
c 5.11 -> 157
c 5.10 -> 156
c 5.9 -> 155
c 5.8 -> 154
c 5.7 -> 153
c 5.6 -> 152
c 4.14 -> 151
c 4.13 -> 150
c 4.12 -> 149
c 4.11 -> 148
c 4.10 -> 147
c 4.9 -> 146
c 4.8 -> 145
c 4.7 -> 144
c 4.6 -> 143
c 4.5 -> 142
c 3.14 -> 141
c 3.13 -> 140
c 3.12 -> 139
c 3.11 -> 138
c 3.10 -> 137
c 3.9 -> 136
c 3.8 -> 135
c 3.7 -> 134
c 3.6 -> 133
c 3.5 -> 132
c 3.4 -> 131
c 2.14 -> 130
c 2.13 -> 129
c 2.12 -> 128
c 2.11 -> 127
c 2.10 -> 126
c 2.9 -> 125
c 2.8 -> 124
c 2.7 -> 123
c 2.6 -> 122
c 2.5 -> 121
c 2.4 -> 120
c 2.3 -> 119
c 14.13 -> 118
c 14.12 -> 117
c 14.11 -> 116
c 14.10 -> 115
c 14.9 -> 114
c 14.8 -> 113
c 14.7 -> 112
c 14.6 -> 111
c 14.5 -> 110
c 14.4 -> 109
c 14.3 -> 108
c 14.2 -> 107
c 14.1 -> 106
c 1.14 -> 105
c 13.12 -> 104
c 13.11 -> 103
c 13.10 -> 102
c 13.9 -> 101
c 13.8 -> 100
c 13.7 -> 99
c 13.6 -> 98
c 13.5 -> 97
c 13.4 -> 96
c 13.3 -> 95
c 13.2 -> 94
c 13.1 -> 93
c 1.13 -> 92
c 12.11 -> 91
c 12.10 -> 90
c 12.9 -> 89
c 12.8 -> 88
c 12.7 -> 87
c 12.6 -> 86
c 12.5 -> 85
c 12.4 -> 84
c 12.3 -> 83
c 12.2 -> 82
c 12.1 -> 81
c 1.12 -> 80
c 11.10 -> 79
c 11.9 -> 78
c 11.8 -> 77
c 11.7 -> 76
c 11.6 -> 75
c 11.5 -> 74
c 11.4 -> 73
c 11.3 -> 72
c 11.2 -> 71
c 11.1 -> 70
c 1.11 -> 69
c 10.9 -> 68
c 10.8 -> 67
c 10.7 -> 66
c 10.6 -> 65
c 10.5 -> 64
c 10.4 -> 63
c 10.3 -> 62
c 10.2 -> 61
c 10.1 -> 60
c 1.10 -> 59
c 9.8 -> 58
c 9.7 -> 57
c 9.6 -> 56
c 9.5 -> 55
c 9.4 -> 54
c 9.3 -> 53
c 9.2 -> 52
c 9.1 -> 51
c 1.9 -> 50
c 8.7 -> 49
c 8.6 -> 48
c 8.5 -> 47
c 8.4 -> 46
c 8.3 -> 45
c 8.2 -> 44
c 8.1 -> 43
c 1.8 -> 42
c 7.6 -> 41
c 7.5 -> 40
c 7.4 -> 39
c 7.3 -> 38
c 7.2 -> 37
c 7.1 -> 36
c 1.7 -> 35
c 6.5 -> 34
c 6.4 -> 33
c 6.3 -> 32
c 6.2 -> 31
c 6.1 -> 30
c 1.6 -> 29
c 5.4 -> 28
c 5.3 -> 27
c 5.2 -> 26
c 5.1 -> 25
c 1.5 -> 24
c 4.3 -> 23
c 4.2 -> 22
c 4.1 -> 21
c 1.4 -> 20
c 3.2 -> 19
c 3.1 -> 18
c 1.3 -> 17
c 2.1 -> 16
c 1.2 -> 15
c 14.14 -> 14
c 13.13 -> 13
c 12.12 -> 12
c 11.11 -> 11
c 10.10 -> 10
c 9.9 -> 9
c 8.8 -> 8
c 7.7 -> 7
c 6.6 -> 6
c 5.5 -> 5
c 4.4 -> 4
c 3.3 -> 3
c 2.2 -> 2
c 1.1 -> 1
p cnf 196 847
 14 118 117 116 115 114 113 112 111 110 109 108 107 106 0
 196 13 104 103 102 101 100 99 98 97 96 95 94 93 0
 195 194 12 91 90 89 88 87 86 85 84 83 82 81 0
 193 192 191 11 79 78 77 76 75 74 73 72 71 70 0
 190 189 188 187 10 68 67 66 65 64 63 62 61 60 0
 186 185 184 183 182 9 58 57 56 55 54 53 52 51 0
 181 180 179 178 177 176 8 49 48 47 46 45 44 43 0
 175 174 173 172 171 170 169 7 41 40 39 38 37 36 0
 168 167 166 165 164 163 162 161 6 34 33 32 31 30 0
 160 159 158 157 156 155 154 153 152 5 28 27 26 25 0
 151 150 149 148 147 146 145 144 143 142 4 23 22 21 0
 141 140 139 138 137 136 135 134 133 132 131 3 19 18 0
 130 129 128 127 126 125 124 123 122 121 120 119 2 16 0
 105 92 80 69 59 50 42 35 29 24 20 17 15 1 0
 13 -118 -196 0
 104 -117 -196 0
 103 -116 -196 0
 102 -115 -196 0
 101 -114 -196 0
 100 -113 -196 0
 99 -112 -196 0
 98 -111 -196 0
 97 -110 -196 0
 96 -109 -196 0
 95 -108 -196 0
 94 -107 -196 0
 93 -106 -196 0
 194 -118 -195 0
 12 -117 -195 0
 91 -116 -195 0
 90 -115 -195 0
 89 -114 -195 0
 88 -113 -195 0
 87 -112 -195 0
 86 -111 -195 0
 85 -110 -195 0
 84 -109 -195 0
 83 -108 -195 0
 82 -107 -195 0
 81 -106 -195 0
 12 -104 -194 0
 91 -103 -194 0
 90 -102 -194 0
 89 -101 -194 0
 88 -100 -194 0
 87 -99 -194 0
 86 -98 -194 0
 85 -97 -194 0
 84 -96 -194 0
 83 -95 -194 0
 82 -94 -194 0
 81 -93 -194 0
 192 -118 -193 0
 191 -117 -193 0
 11 -116 -193 0
 79 -115 -193 0
 78 -114 -193 0
 77 -113 -193 0
 76 -112 -193 0
 75 -111 -193 0
 74 -110 -193 0
 73 -109 -193 0
 72 -108 -193 0
 71 -107 -193 0
 70 -106 -193 0
 191 -104 -192 0
 11 -103 -192 0
 79 -102 -192 0
 78 -101 -192 0
 77 -100 -192 0
 76 -99 -192 0
 75 -98 -192 0
 74 -97 -192 0
 73 -96 -192 0
 72 -95 -192 0
 71 -94 -192 0
 70 -93 -192 0
 11 -91 -191 0
 79 -90 -191 0
 78 -89 -191 0
 77 -88 -191 0
 76 -87 -191 0
 75 -86 -191 0
 74 -85 -191 0
 73 -84 -191 0
 72 -83 -191 0
 71 -82 -191 0
 70 -81 -191 0
 189 -118 -190 0
 188 -117 -190 0
 187 -116 -190 0
 10 -115 -190 0
 68 -114 -190 0
 67 -113 -190 0
 66 -112 -190 0
 65 -111 -190 0
 64 -110 -190 0
 63 -109 -190 0
 62 -108 -190 0
 61 -107 -190 0
 60 -106 -190 0
 188 -104 -189 0
 187 -103 -189 0
 10 -102 -189 0
 68 -101 -189 0
 67 -100 -189 0
 66 -99 -189 0
 65 -98 -189 0
 64 -97 -189 0
 63 -96 -189 0
 62 -95 -189 0
 61 -94 -189 0
 60 -93 -189 0
 187 -91 -188 0
 10 -90 -188 0
 68 -89 -188 0
 67 -88 -188 0
 66 -87 -188 0
 65 -86 -188 0
 64 -85 -188 0
 63 -84 -188 0
 62 -83 -188 0
 61 -82 -188 0
 60 -81 -188 0
 10 -79 -187 0
 68 -78 -187 0
 67 -77 -187 0
 66 -76 -187 0
 65 -75 -187 0
 64 -74 -187 0
 63 -73 -187 0
 62 -72 -187 0
 61 -71 -187 0
 60 -70 -187 0
 185 -118 -186 0
 184 -117 -186 0
 183 -116 -186 0
 182 -115 -186 0
 9 -114 -186 0
 58 -113 -186 0
 57 -112 -186 0
 56 -111 -186 0
 55 -110 -186 0
 54 -109 -186 0
 53 -108 -186 0
 52 -107 -186 0
 51 -106 -186 0
 184 -104 -185 0
 183 -103 -185 0
 182 -102 -185 0
 9 -101 -185 0
 58 -100 -185 0
 57 -99 -185 0
 56 -98 -185 0
 55 -97 -185 0
 54 -96 -185 0
 53 -95 -185 0
 52 -94 -185 0
 51 -93 -185 0
 183 -91 -184 0
 182 -90 -184 0
 9 -89 -184 0
 58 -88 -184 0
 57 -87 -184 0
 56 -86 -184 0
 55 -85 -184 0
 54 -84 -184 0
 53 -83 -184 0
 52 -82 -184 0
 51 -81 -184 0
 182 -79 -183 0
 9 -78 -183 0
 58 -77 -183 0
 57 -76 -183 0
 56 -75 -183 0
 55 -74 -183 0
 54 -73 -183 0
 53 -72 -183 0
 52 -71 -183 0
 51 -70 -183 0
 9 -68 -182 0
 58 -67 -182 0
 57 -66 -182 0
 56 -65 -182 0
 55 -64 -182 0
 54 -63 -182 0
 53 -62 -182 0
 52 -61 -182 0
 51 -60 -182 0
 180 -118 -181 0
 179 -117 -181 0
 178 -116 -181 0
 177 -115 -181 0
 176 -114 -181 0
 8 -113 -181 0
 49 -112 -181 0
 48 -111 -181 0
 47 -110 -181 0
 46 -109 -181 0
 45 -108 -181 0
 44 -107 -181 0
 43 -106 -181 0
 179 -104 -180 0
 178 -103 -180 0
 177 -102 -180 0
 176 -101 -180 0
 8 -100 -180 0
 49 -99 -180 0
 48 -98 -180 0
 47 -97 -180 0
 46 -96 -180 0
 45 -95 -180 0
 44 -94 -180 0
 43 -93 -180 0
 178 -91 -179 0
 177 -90 -179 0
 176 -89 -179 0
 8 -88 -179 0
 49 -87 -179 0
 48 -86 -179 0
 47 -85 -179 0
 46 -84 -179 0
 45 -83 -179 0
 44 -82 -179 0
 43 -81 -179 0
 177 -79 -178 0
 176 -78 -178 0
 8 -77 -178 0
 49 -76 -178 0
 48 -75 -178 0
 47 -74 -178 0
 46 -73 -178 0
 45 -72 -178 0
 44 -71 -178 0
 43 -70 -178 0
 176 -68 -177 0
 8 -67 -177 0
 49 -66 -177 0
 48 -65 -177 0
 47 -64 -177 0
 46 -63 -177 0
 45 -62 -177 0
 44 -61 -177 0
 43 -60 -177 0
 8 -58 -176 0
 49 -57 -176 0
 48 -56 -176 0
 47 -55 -176 0
 46 -54 -176 0
 45 -53 -176 0
 44 -52 -176 0
 43 -51 -176 0
 174 -118 -175 0
 173 -117 -175 0
 172 -116 -175 0
 171 -115 -175 0
 170 -114 -175 0
 169 -113 -175 0
 7 -112 -175 0
 41 -111 -175 0
 40 -110 -175 0
 39 -109 -175 0
 38 -108 -175 0
 37 -107 -175 0
 36 -106 -175 0
 173 -104 -174 0
 172 -103 -174 0
 171 -102 -174 0
 170 -101 -174 0
 169 -100 -174 0
 7 -99 -174 0
 41 -98 -174 0
 40 -97 -174 0
 39 -96 -174 0
 38 -95 -174 0
 37 -94 -174 0
 36 -93 -174 0
 172 -91 -173 0
 171 -90 -173 0
 170 -89 -173 0
 169 -88 -173 0
 7 -87 -173 0
 41 -86 -173 0
 40 -85 -173 0
 39 -84 -173 0
 38 -83 -173 0
 37 -82 -173 0
 36 -81 -173 0
 171 -79 -172 0
 170 -78 -172 0
 169 -77 -172 0
 7 -76 -172 0
 41 -75 -172 0
 40 -74 -172 0
 39 -73 -172 0
 38 -72 -172 0
 37 -71 -172 0
 36 -70 -172 0
 170 -68 -171 0
 169 -67 -171 0
 7 -66 -171 0
 41 -65 -171 0
 40 -64 -171 0
 39 -63 -171 0
 38 -62 -171 0
 37 -61 -171 0
 36 -60 -171 0
 169 -58 -170 0
 7 -57 -170 0
 41 -56 -170 0
 40 -55 -170 0
 39 -54 -170 0
 38 -53 -170 0
 37 -52 -170 0
 36 -51 -170 0
 7 -49 -169 0
 41 -48 -169 0
 40 -47 -169 0
 39 -46 -169 0
 38 -45 -169 0
 37 -44 -169 0
 36 -43 -169 0
 167 -118 -168 0
 166 -117 -168 0
 165 -116 -168 0
 164 -115 -168 0
 163 -114 -168 0
 162 -113 -168 0
 161 -112 -168 0
 6 -111 -168 0
 34 -110 -168 0
 33 -109 -168 0
 32 -108 -168 0
 31 -107 -168 0
 30 -106 -168 0
 166 -104 -167 0
 165 -103 -167 0
 164 -102 -167 0
 163 -101 -167 0
 162 -100 -167 0
 161 -99 -167 0
 6 -98 -167 0
 34 -97 -167 0
 33 -96 -167 0
 32 -95 -167 0
 31 -94 -167 0
 30 -93 -167 0
 165 -91 -166 0
 164 -90 -166 0
 163 -89 -166 0
 162 -88 -166 0
 161 -87 -166 0
 6 -86 -166 0
 34 -85 -166 0
 33 -84 -166 0
 32 -83 -166 0
 31 -82 -166 0
 30 -81 -166 0
 164 -79 -165 0
 163 -78 -165 0
 162 -77 -165 0
 161 -76 -165 0
 6 -75 -165 0
 34 -74 -165 0
 33 -73 -165 0
 32 -72 -165 0
 31 -71 -165 0
 30 -70 -165 0
 163 -68 -164 0
 162 -67 -164 0
 161 -66 -164 0
 6 -65 -164 0
 34 -64 -164 0
 33 -63 -164 0
 32 -62 -164 0
 31 -61 -164 0
 30 -60 -164 0
 162 -58 -163 0
 161 -57 -163 0
 6 -56 -163 0
 34 -55 -163 0
 33 -54 -163 0
 32 -53 -163 0
 31 -52 -163 0
 30 -51 -163 0
 161 -49 -162 0
 6 -48 -162 0
 34 -47 -162 0
 33 -46 -162 0
 32 -45 -162 0
 31 -44 -162 0
 30 -43 -162 0
 6 -41 -161 0
 34 -40 -161 0
 33 -39 -161 0
 32 -38 -161 0
 31 -37 -161 0
 30 -36 -161 0
 159 -118 -160 0
 158 -117 -160 0
 157 -116 -160 0
 156 -115 -160 0
 155 -114 -160 0
 154 -113 -160 0
 153 -112 -160 0
 152 -111 -160 0
 5 -110 -160 0
 28 -109 -160 0
 27 -108 -160 0
 26 -107 -160 0
 25 -106 -160 0
 158 -104 -159 0
 157 -103 -159 0
 156 -102 -159 0
 155 -101 -159 0
 154 -100 -159 0
 153 -99 -159 0
 152 -98 -159 0
 5 -97 -159 0
 28 -96 -159 0
 27 -95 -159 0
 26 -94 -159 0
 25 -93 -159 0
 157 -91 -158 0
 156 -90 -158 0
 155 -89 -158 0
 154 -88 -158 0
 153 -87 -158 0
 152 -86 -158 0
 5 -85 -158 0
 28 -84 -158 0
 27 -83 -158 0
 26 -82 -158 0
 25 -81 -158 0
 156 -79 -157 0
 155 -78 -157 0
 154 -77 -157 0
 153 -76 -157 0
 152 -75 -157 0
 5 -74 -157 0
 28 -73 -157 0
 27 -72 -157 0
 26 -71 -157 0
 25 -70 -157 0
 155 -68 -156 0
 154 -67 -156 0
 153 -66 -156 0
 152 -65 -156 0
 5 -64 -156 0
 28 -63 -156 0
 27 -62 -156 0
 26 -61 -156 0
 25 -60 -156 0
 154 -58 -155 0
 153 -57 -155 0
 152 -56 -155 0
 5 -55 -155 0
 28 -54 -155 0
 27 -53 -155 0
 26 -52 -155 0
 25 -51 -155 0
 153 -49 -154 0
 152 -48 -154 0
 5 -47 -154 0
 28 -46 -154 0
 27 -45 -154 0
 26 -44 -154 0
 25 -43 -154 0
 152 -41 -153 0
 5 -40 -153 0
 28 -39 -153 0
 27 -38 -153 0
 26 -37 -153 0
 25 -36 -153 0
 5 -34 -152 0
 28 -33 -152 0
 27 -32 -152 0
 26 -31 -152 0
 25 -30 -152 0
 150 -118 -151 0
 149 -117 -151 0
 148 -116 -151 0
 147 -115 -151 0
 146 -114 -151 0
 145 -113 -151 0
 144 -112 -151 0
 143 -111 -151 0
 142 -110 -151 0
 4 -109 -151 0
 23 -108 -151 0
 22 -107 -151 0
 21 -106 -151 0
 149 -104 -150 0
 148 -103 -150 0
 147 -102 -150 0
 146 -101 -150 0
 145 -100 -150 0
 144 -99 -150 0
 143 -98 -150 0
 142 -97 -150 0
 4 -96 -150 0
 23 -95 -150 0
 22 -94 -150 0
 21 -93 -150 0
 148 -91 -149 0
 147 -90 -149 0
 146 -89 -149 0
 145 -88 -149 0
 144 -87 -149 0
 143 -86 -149 0
 142 -85 -149 0
 4 -84 -149 0
 23 -83 -149 0
 22 -82 -149 0
 21 -81 -149 0
 147 -79 -148 0
 146 -78 -148 0
 145 -77 -148 0
 144 -76 -148 0
 143 -75 -148 0
 142 -74 -148 0
 4 -73 -148 0
 23 -72 -148 0
 22 -71 -148 0
 21 -70 -148 0
 146 -68 -147 0
 145 -67 -147 0
 144 -66 -147 0
 143 -65 -147 0
 142 -64 -147 0
 4 -63 -147 0
 23 -62 -147 0
 22 -61 -147 0
 21 -60 -147 0
 145 -58 -146 0
 144 -57 -146 0
 143 -56 -146 0
 142 -55 -146 0
 4 -54 -146 0
 23 -53 -146 0
 22 -52 -146 0
 21 -51 -146 0
 144 -49 -145 0
 143 -48 -145 0
 142 -47 -145 0
 4 -46 -145 0
 23 -45 -145 0
 22 -44 -145 0
 21 -43 -145 0
 143 -41 -144 0
 142 -40 -144 0
 4 -39 -144 0
 23 -38 -144 0
 22 -37 -144 0
 21 -36 -144 0
 142 -34 -143 0
 4 -33 -143 0
 23 -32 -143 0
 22 -31 -143 0
 21 -30 -143 0
 4 -28 -142 0
 23 -27 -142 0
 22 -26 -142 0
 21 -25 -142 0
 140 -118 -141 0
 139 -117 -141 0
 138 -116 -141 0
 137 -115 -141 0
 136 -114 -141 0
 135 -113 -141 0
 134 -112 -141 0
 133 -111 -141 0
 132 -110 -141 0
 131 -109 -141 0
 3 -108 -141 0
 19 -107 -141 0
 18 -106 -141 0
 139 -104 -140 0
 138 -103 -140 0
 137 -102 -140 0
 136 -101 -140 0
 135 -100 -140 0
 134 -99 -140 0
 133 -98 -140 0
 132 -97 -140 0
 131 -96 -140 0
 3 -95 -140 0
 19 -94 -140 0
 18 -93 -140 0
 138 -91 -139 0
 137 -90 -139 0
 136 -89 -139 0
 135 -88 -139 0
 134 -87 -139 0
 133 -86 -139 0
 132 -85 -139 0
 131 -84 -139 0
 3 -83 -139 0
 19 -82 -139 0
 18 -81 -139 0
 137 -79 -138 0
 136 -78 -138 0
 135 -77 -138 0
 134 -76 -138 0
 133 -75 -138 0
 132 -74 -138 0
 131 -73 -138 0
 3 -72 -138 0
 19 -71 -138 0
 18 -70 -138 0
 136 -68 -137 0
 135 -67 -137 0
 134 -66 -137 0
 133 -65 -137 0
 132 -64 -137 0
 131 -63 -137 0
 3 -62 -137 0
 19 -61 -137 0
 18 -60 -137 0
 135 -58 -136 0
 134 -57 -136 0
 133 -56 -136 0
 132 -55 -136 0
 131 -54 -136 0
 3 -53 -136 0
 19 -52 -136 0
 18 -51 -136 0
 134 -49 -135 0
 133 -48 -135 0
 132 -47 -135 0
 131 -46 -135 0
 3 -45 -135 0
 19 -44 -135 0
 18 -43 -135 0
 133 -41 -134 0
 132 -40 -134 0
 131 -39 -134 0
 3 -38 -134 0
 19 -37 -134 0
 18 -36 -134 0
 132 -34 -133 0
 131 -33 -133 0
 3 -32 -133 0
 19 -31 -133 0
 18 -30 -133 0
 131 -28 -132 0
 3 -27 -132 0
 19 -26 -132 0
 18 -25 -132 0
 3 -23 -131 0
 19 -22 -131 0
 18 -21 -131 0
 129 -118 -130 0
 128 -117 -130 0
 127 -116 -130 0
 126 -115 -130 0
 125 -114 -130 0
 124 -113 -130 0
 123 -112 -130 0
 122 -111 -130 0
 121 -110 -130 0
 120 -109 -130 0
 119 -108 -130 0
 2 -107 -130 0
 16 -106 -130 0
 128 -104 -129 0
 127 -103 -129 0
 126 -102 -129 0
 125 -101 -129 0
 124 -100 -129 0
 123 -99 -129 0
 122 -98 -129 0
 121 -97 -129 0
 120 -96 -129 0
 119 -95 -129 0
 2 -94 -129 0
 16 -93 -129 0
 127 -91 -128 0
 126 -90 -128 0
 125 -89 -128 0
 124 -88 -128 0
 123 -87 -128 0
 122 -86 -128 0
 121 -85 -128 0
 120 -84 -128 0
 119 -83 -128 0
 2 -82 -128 0
 16 -81 -128 0
 126 -79 -127 0
 125 -78 -127 0
 124 -77 -127 0
 123 -76 -127 0
 122 -75 -127 0
 121 -74 -127 0
 120 -73 -127 0
 119 -72 -127 0
 2 -71 -127 0
 16 -70 -127 0
 125 -68 -126 0
 124 -67 -126 0
 123 -66 -126 0
 122 -65 -126 0
 121 -64 -126 0
 120 -63 -126 0
 119 -62 -126 0
 2 -61 -126 0
 16 -60 -126 0
 124 -58 -125 0
 123 -57 -125 0
 122 -56 -125 0
 121 -55 -125 0
 120 -54 -125 0
 119 -53 -125 0
 2 -52 -125 0
 16 -51 -125 0
 123 -49 -124 0
 122 -48 -124 0
 121 -47 -124 0
 120 -46 -124 0
 119 -45 -124 0
 2 -44 -124 0
 16 -43 -124 0
 122 -41 -123 0
 121 -40 -123 0
 120 -39 -123 0
 119 -38 -123 0
 2 -37 -123 0
 16 -36 -123 0
 121 -34 -122 0
 120 -33 -122 0
 119 -32 -122 0
 2 -31 -122 0
 16 -30 -122 0
 120 -28 -121 0
 119 -27 -121 0
 2 -26 -121 0
 16 -25 -121 0
 119 -23 -120 0
 2 -22 -120 0
 16 -21 -120 0
 2 -19 -119 0
 16 -18 -119 0
 92 -118 -105 0
 80 -117 -105 0
 69 -116 -105 0
 59 -115 -105 0
 50 -114 -105 0
 42 -113 -105 0
 35 -112 -105 0
 29 -111 -105 0
 24 -110 -105 0
 20 -109 -105 0
 17 -108 -105 0
 15 -107 -105 0
 1 -106 -105 0
 80 -104 -92 0
 69 -103 -92 0
 59 -102 -92 0
 50 -101 -92 0
 42 -100 -92 0
 35 -99 -92 0
 29 -98 -92 0
 24 -97 -92 0
 20 -96 -92 0
 17 -95 -92 0
 15 -94 -92 0
 1 -93 -92 0
 69 -91 -80 0
 59 -90 -80 0
 50 -89 -80 0
 42 -88 -80 0
 35 -87 -80 0
 29 -86 -80 0
 24 -85 -80 0
 20 -84 -80 0
 17 -83 -80 0
 15 -82 -80 0
 1 -81 -80 0
 59 -79 -69 0
 50 -78 -69 0
 42 -77 -69 0
 35 -76 -69 0
 29 -75 -69 0
 24 -74 -69 0
 20 -73 -69 0
 17 -72 -69 0
 15 -71 -69 0
 1 -70 -69 0
 50 -68 -59 0
 42 -67 -59 0
 35 -66 -59 0
 29 -65 -59 0
 24 -64 -59 0
 20 -63 -59 0
 17 -62 -59 0
 15 -61 -59 0
 1 -60 -59 0
 42 -58 -50 0
 35 -57 -50 0
 29 -56 -50 0
 24 -55 -50 0
 20 -54 -50 0
 17 -53 -50 0
 15 -52 -50 0
 1 -51 -50 0
 35 -49 -42 0
 29 -48 -42 0
 24 -47 -42 0
 20 -46 -42 0
 17 -45 -42 0
 15 -44 -42 0
 1 -43 -42 0
 29 -41 -35 0
 24 -40 -35 0
 20 -39 -35 0
 17 -38 -35 0
 15 -37 -35 0
 1 -36 -35 0
 24 -34 -29 0
 20 -33 -29 0
 17 -32 -29 0
 15 -31 -29 0
 1 -30 -29 0
 20 -28 -24 0
 17 -27 -24 0
 15 -26 -24 0
 1 -25 -24 0
 17 -23 -20 0
 15 -22 -20 0
 1 -21 -20 0
 15 -19 -17 0
 1 -18 -17 0
 1 -16 -15 0
 -14 0
 -13 0
 -12 0
 -11 0
 -10 0
 -9 0
 -8 0
 -7 0
 -6 0
 -5 0
 -4 0
 -3 0
 -2 0
 -1 0
